&CONTROL
   calculation      = 'scf'
   outdir           = 'TiN_ase_bfgs_calculations'
   prefix           = 'TiN'
   pseudo_dir       = '/home/ameerracle/Tr_Metals_QE/pseudo_dir'
/
&SYSTEM
   ecutwfc          = 47.7740946809058
   ecutrho          = 382.1927574472464
   occupations      = 'smearing'
   degauss          = 0.01
   smearing         = 'gaussian'
   input_dft        = 'pbe'
   vdw_corr         = 'dft-d3'
   dftd3_version    = 4
   ntyp             = 2
   nat              = 8
   ibrav            = 0
/
&ELECTRONS
   conv_thr         = 1e-08
   mixing_beta      = 0.7
/
&IONS
/
&CELL
/
&FCP
/
&RISM
/
ATOMIC_SPECIES
Ti 47.867 ti_pbe_v1.4.uspp.F.UPF
N 14.007 N.pbe-n-radius_5.UPF

K_POINTS automatic
7 7 7  0 0 0

CELL_PARAMETERS angstrom
4.24124690000000 0.00000000000000 0.00000000000000
0.00000000000000 4.24124690000000 0.00000000000000
0.00000000000000 0.00000000000000 4.24124690000000

ATOMIC_POSITIONS angstrom
Ti 0.0000000000 0.0000000000 0.0000000000  
Ti 2.1206234500 2.1206234500 0.0000000000  
Ti 2.1206234500 0.0000000000 2.1206234500  
Ti 0.0000000000 2.1206234500 2.1206234500  
N 0.0000000000 0.0000000000 2.1206234500  
N 2.1206234500 0.0000000000 0.0000000000  
N 0.0000000000 2.1206234500 0.0000000000  
N 2.1206234500 2.1206234500 2.1206234500  

