&CONTROL
   calculation      = 'scf'
   outdir           = './QE_output'
   prefix           = 'TiN'
   pseudo_dir       = '/home/ameerracle/Tr_Metals_QE/pseudo_dir'
/
&SYSTEM
   ecutwfc          = 70
   ecutrho          = 280
   degauss          = 0.01
   smearing         = 'mv'
   ntyp             = 2
   nat              = 64
   ibrav            = 0
/
&ELECTRONS
   conv_thr         = 1e-07
/
&IONS
/
&CELL
/
&FCP
/
&RISM
/
ATOMIC_SPECIES
N 14.007 N.pbe-n-radius_5.UPF
Ti 47.867 ti_pbe_v1.4.uspp.F.UPF

K_POINTS automatic
7 7 1  0 0 0

CELL_PARAMETERS angstrom
8.42461737207240 0.00000000000000 0.00000000000000
0.00000000000000 8.42461737207240 0.00000000000000
0.00000000000000 0.00000000000000 26.31846302603620

ATOMIC_POSITIONS angstrom
N 0.0000000000 2.1061543400 10.0000000000   0 0 0
N 0.0000000000 0.0000000000 12.1061543400   0 0 0
N 2.1061543400 0.0000000000 10.0000000000   0 0 0
N 2.1061543400 2.1061543400 12.1061543400   0 0 0
Ti 0.0000000000 0.0000000000 10.0000000000   0 0 0
Ti 2.1061543400 0.0000000000 12.1061543400   0 0 0
Ti 0.0000000000 2.1061543400 12.1061543400   0 0 0
Ti 2.1061543400 2.1061543400 10.0000000000   0 0 0
N 0.0000000000 2.1061543400 14.2123086860  
N 0.0000000000 0.0000000000 16.3184630260  
N 2.1061543400 0.0000000000 14.2123086860  
N 2.1061543400 2.1061543400 16.3184630260  
Ti 0.0000000000 0.0000000000 14.2123086860  
Ti 2.1061543400 0.0000000000 16.3184630260  
Ti 0.0000000000 2.1061543400 16.3184630260  
Ti 2.1061543400 2.1061543400 14.2123086860  
N 0.0000000000 6.3184630260 10.0000000000   0 0 0
N 0.0000000000 4.2123086860 12.1061543400   0 0 0
N 2.1061543400 4.2123086860 10.0000000000   0 0 0
N 2.1061543400 6.3184630260 12.1061543400   0 0 0
Ti 0.0000000000 4.2123086860 10.0000000000   0 0 0
Ti 2.1061543400 4.2123086860 12.1061543400   0 0 0
Ti 0.0000000000 6.3184630260 12.1061543400   0 0 0
Ti 2.1061543400 6.3184630260 10.0000000000   0 0 0
N 0.0000000000 6.3184630260 14.2123086860  
N 0.0000000000 4.2123086860 16.3184630260  
N 2.1061543400 4.2123086860 14.2123086860  
N 2.1061543400 6.3184630260 16.3184630260  
Ti 0.0000000000 4.2123086860 14.2123086860  
Ti 2.1061543400 4.2123086860 16.3184630260  
Ti 0.0000000000 6.3184630260 16.3184630260  
Ti 2.1061543400 6.3184630260 14.2123086860  
N 4.2123086860 2.1061543400 10.0000000000   0 0 0
N 4.2123086860 0.0000000000 12.1061543400   0 0 0
N 6.3184630260 0.0000000000 10.0000000000   0 0 0
N 6.3184630260 2.1061543400 12.1061543400   0 0 0
Ti 4.2123086860 0.0000000000 10.0000000000   0 0 0
Ti 6.3184630260 0.0000000000 12.1061543400   0 0 0
Ti 4.2123086860 2.1061543400 12.1061543400   0 0 0
Ti 6.3184630260 2.1061543400 10.0000000000   0 0 0
N 4.2123086860 2.1061543400 14.2123086860  
N 4.2123086860 0.0000000000 16.3184630260  
N 6.3184630260 0.0000000000 14.2123086860  
N 6.3184630260 2.1061543400 16.3184630260  
Ti 4.2123086860 0.0000000000 14.2123086860  
Ti 6.3184630260 0.0000000000 16.3184630260  
Ti 4.2123086860 2.1061543400 16.3184630260  
Ti 6.3184630260 2.1061543400 14.2123086860  
N 4.2123086860 6.3184630260 10.0000000000   0 0 0
N 4.2123086860 4.2123086860 12.1061543400   0 0 0
N 6.3184630260 4.2123086860 10.0000000000   0 0 0
N 6.3184630260 6.3184630260 12.1061543400   0 0 0
Ti 4.2123086860 4.2123086860 10.0000000000   0 0 0
Ti 6.3184630260 4.2123086860 12.1061543400   0 0 0
Ti 4.2123086860 6.3184630260 12.1061543400   0 0 0
Ti 6.3184630260 6.3184630260 10.0000000000   0 0 0
N 4.2123086860 6.3184630260 14.2123086860  
N 4.2123086860 4.2123086860 16.3184630260  
N 6.3184630260 4.2123086860 14.2123086860  
N 6.3184630260 6.3184630260 16.3184630260  
Ti 4.2123086860 4.2123086860 14.2123086860  
Ti 6.3184630260 4.2123086860 16.3184630260  
Ti 4.2123086860 6.3184630260 16.3184630260  
Ti 6.3184630260 6.3184630260 14.2123086860  

