&CONTROL
   calculation      = 'scf'
   outdir           = './QE_output'
   prefix           = 'TiN'
   pseudo_dir       = '/nfs/home/a/a_nizami/pseudo_dir'
/
&SYSTEM
   ecutwfc          = 40
   ecutrho          = 300
   degauss          = 0.02
   smearing         = 'gaussian'
   input_dft        = 'pbe'
   vdw_corr         = 'dft-d3'
   ntyp             = 2
   nat              = 64
   ibrav            = 0
/
&ELECTRONS
   electron_maxstep = 100
   conv_thr         = 1e-06
   mixing_mode      = 'local-TF'
   mixing_beta      = 0.3
/
&IONS
/
&CELL
/
&FCP
/
&RISM
/
ATOMIC_SPECIES
Ti 47.867 ti_pbe_v1.4.uspp.F.UPF
N 14.007 n_pbe_v1.2.uspp.F.UPF

K_POINTS automatic
3 3 1  0 0 0

CELL_PARAMETERS angstrom
8.56213081600000 0.00000000000000 0.00000000000000
0.00000000000000 8.56213081600000 0.00000000000000
0.00000000000000 0.00000000000000 26.42159811220000

ATOMIC_POSITIONS angstrom
Ti 0.0000000000 0.0000000000 10.0000000000   0 0 0
Ti 2.1405327042 0.0000000000 12.1405327042   0 0 0
Ti 0.0000000000 2.1405327042 12.1405327042   0 0 0
Ti 2.1405327042 2.1405327042 10.0000000000   0 0 0
N 0.0000000000 2.1405327042 10.0000000000   0 0 0
N 0.0000000000 0.0000000000 12.1405327042   0 0 0
N 2.1405327042 0.0000000000 10.0000000000   0 0 0
N 2.1405327042 2.1405327042 12.1405327042   0 0 0
Ti 0.0000000000 0.0000000000 14.2810654080  
Ti 2.1405327042 0.0000000000 16.4215981122  
Ti 0.0000000000 2.1405327042 16.4215981122  
Ti 2.1405327042 2.1405327042 14.2810654080  
N 0.0000000000 2.1405327042 14.2810654080  
N 0.0000000000 0.0000000000 16.4215981122  
N 2.1405327042 0.0000000000 14.2810654080  
N 2.1405327042 2.1405327042 16.4215981122  
Ti 0.0000000000 4.2810654080 10.0000000000   0 0 0
Ti 2.1405327042 4.2810654080 12.1405327042   0 0 0
Ti 0.0000000000 6.4215981122 12.1405327042   0 0 0
Ti 2.1405327042 6.4215981122 10.0000000000   0 0 0
N 0.0000000000 6.4215981122 10.0000000000   0 0 0
N 0.0000000000 4.2810654080 12.1405327042   0 0 0
N 2.1405327042 4.2810654080 10.0000000000   0 0 0
N 2.1405327042 6.4215981122 12.1405327042   0 0 0
Ti 0.0000000000 4.2810654080 14.2810654080  
Ti 2.1405327042 4.2810654080 16.4215981122  
Ti 0.0000000000 6.4215981122 16.4215981122  
Ti 2.1405327042 6.4215981122 14.2810654080  
N 0.0000000000 6.4215981122 14.2810654080  
N 0.0000000000 4.2810654080 16.4215981122  
N 2.1405327042 4.2810654080 14.2810654080  
N 2.1405327042 6.4215981122 16.4215981122  
Ti 4.2810654080 0.0000000000 10.0000000000   0 0 0
Ti 6.4215981122 0.0000000000 12.1405327042   0 0 0
Ti 4.2810654080 2.1405327042 12.1405327042   0 0 0
Ti 6.4215981122 2.1405327042 10.0000000000   0 0 0
N 4.2810654080 2.1405327042 10.0000000000   0 0 0
N 4.2810654080 0.0000000000 12.1405327042   0 0 0
N 6.4215981122 0.0000000000 10.0000000000   0 0 0
N 6.4215981122 2.1405327042 12.1405327042   0 0 0
Ti 4.2810654080 0.0000000000 14.2810654080  
Ti 6.4215981122 0.0000000000 16.4215981122  
Ti 4.2810654080 2.1405327042 16.4215981122  
Ti 6.4215981122 2.1405327042 14.2810654080  
N 4.2810654080 2.1405327042 14.2810654080  
N 4.2810654080 0.0000000000 16.4215981122  
N 6.4215981122 0.0000000000 14.2810654080  
N 6.4215981122 2.1405327042 16.4215981122  
Ti 4.2810654080 4.2810654080 10.0000000000   0 0 0
Ti 6.4215981122 4.2810654080 12.1405327042   0 0 0
Ti 4.2810654080 6.4215981122 12.1405327042   0 0 0
Ti 6.4215981122 6.4215981122 10.0000000000   0 0 0
N 4.2810654080 6.4215981122 10.0000000000   0 0 0
N 4.2810654080 4.2810654080 12.1405327042   0 0 0
N 6.4215981122 4.2810654080 10.0000000000   0 0 0
N 6.4215981122 6.4215981122 12.1405327042   0 0 0
Ti 4.2810654080 4.2810654080 14.2810654080  
Ti 6.4215981122 4.2810654080 16.4215981122  
Ti 4.2810654080 6.4215981122 16.4215981122  
Ti 6.4215981122 6.4215981122 14.2810654080  
N 4.2810654080 6.4215981122 14.2810654080  
N 4.2810654080 4.2810654080 16.4215981122  
N 6.4215981122 4.2810654080 14.2810654080  
N 6.4215981122 6.4215981122 16.4215981122  

