&CONTROL
   calculation      = 'scf'
   outdir           = './QE_output'
   prefix           = 'TiN'
   pseudo_dir       = '/nfs/home/a/a_nizami/pseudo_dir'
/
&SYSTEM
   ecutwfc          = 40
   ecutrho          = 320
   degauss          = 0.01
   smearing         = 'mv'
   input_dft        = 'pbe'
   vdw_corr         = 'dft-d3'
   dftd3_version    = 4
   ntyp             = 2
   nat              = 64
   ibrav            = 0
/
&ELECTRONS
   electron_maxstep = 200
   conv_thr         = 1e-06
   mixing_mode      = 'local-TF'
   mixing_beta      = 0.4
/
&IONS
/
&CELL
/
&FCP
/
&RISM
/
ATOMIC_SPECIES
N 14.007 N.pbe-n-radius_5.UPF
Ti 47.867 ti_pbe_v1.4.uspp.F.UPF

K_POINTS automatic
5 5 1  0 0 0

CELL_PARAMETERS angstrom
8.42461737207240 0.00000000000000 0.00000000000000
0.00000000000000 8.42461737207240 0.00000000000000
0.00000000000000 0.00000000000000 16.31846302603620

ATOMIC_POSITIONS angstrom
N 0.0000000000 2.1061543400 5.0000000000   0 0 0
N 0.0000000000 0.0000000000 7.1061543400   0 0 0
N 2.1061543400 0.0000000000 5.0000000000   0 0 0
N 2.1061543400 2.1061543400 7.1061543400   0 0 0
Ti 0.0000000000 0.0000000000 5.0000000000   0 0 0
Ti 2.1061543400 0.0000000000 7.1061543400   0 0 0
Ti 0.0000000000 2.1061543400 7.1061543400   0 0 0
Ti 2.1061543400 2.1061543400 5.0000000000   0 0 0
N 0.0000000000 2.1061543400 9.2123086860  
N 0.0000000000 0.0000000000 11.3184630260  
N 2.1061543400 0.0000000000 9.2123086860  
N 2.1061543400 2.1061543400 11.3184630260  
Ti 0.0000000000 0.0000000000 9.2123086860  
Ti 2.1061543400 0.0000000000 11.3184630260  
Ti 0.0000000000 2.1061543400 11.3184630260  
Ti 2.1061543400 2.1061543400 9.2123086860  
N 0.0000000000 6.3184630260 5.0000000000   0 0 0
N 0.0000000000 4.2123086860 7.1061543400   0 0 0
N 2.1061543400 4.2123086860 5.0000000000   0 0 0
N 2.1061543400 6.3184630260 7.1061543400   0 0 0
Ti 0.0000000000 4.2123086860 5.0000000000   0 0 0
Ti 2.1061543400 4.2123086860 7.1061543400   0 0 0
Ti 0.0000000000 6.3184630260 7.1061543400   0 0 0
Ti 2.1061543400 6.3184630260 5.0000000000   0 0 0
N 0.0000000000 6.3184630260 9.2123086860  
N 0.0000000000 4.2123086860 11.3184630260  
N 2.1061543400 4.2123086860 9.2123086860  
N 2.1061543400 6.3184630260 11.3184630260  
Ti 0.0000000000 4.2123086860 9.2123086860  
Ti 2.1061543400 4.2123086860 11.3184630260  
Ti 0.0000000000 6.3184630260 11.3184630260  
Ti 2.1061543400 6.3184630260 9.2123086860  
N 4.2123086860 2.1061543400 5.0000000000   0 0 0
N 4.2123086860 0.0000000000 7.1061543400   0 0 0
N 6.3184630260 0.0000000000 5.0000000000   0 0 0
N 6.3184630260 2.1061543400 7.1061543400   0 0 0
Ti 4.2123086860 0.0000000000 5.0000000000   0 0 0
Ti 6.3184630260 0.0000000000 7.1061543400   0 0 0
Ti 4.2123086860 2.1061543400 7.1061543400   0 0 0
Ti 6.3184630260 2.1061543400 5.0000000000   0 0 0
N 4.2123086860 2.1061543400 9.2123086860  
N 4.2123086860 0.0000000000 11.3184630260  
N 6.3184630260 0.0000000000 9.2123086860  
N 6.3184630260 2.1061543400 11.3184630260  
Ti 4.2123086860 0.0000000000 9.2123086860  
Ti 6.3184630260 0.0000000000 11.3184630260  
Ti 4.2123086860 2.1061543400 11.3184630260  
Ti 6.3184630260 2.1061543400 9.2123086860  
N 4.2123086860 6.3184630260 5.0000000000   0 0 0
N 4.2123086860 4.2123086860 7.1061543400   0 0 0
N 6.3184630260 4.2123086860 5.0000000000   0 0 0
N 6.3184630260 6.3184630260 7.1061543400   0 0 0
Ti 4.2123086860 4.2123086860 5.0000000000   0 0 0
Ti 6.3184630260 4.2123086860 7.1061543400   0 0 0
Ti 4.2123086860 6.3184630260 7.1061543400   0 0 0
Ti 6.3184630260 6.3184630260 5.0000000000   0 0 0
N 4.2123086860 6.3184630260 9.2123086860  
N 4.2123086860 4.2123086860 11.3184630260  
N 6.3184630260 4.2123086860 9.2123086860  
N 6.3184630260 6.3184630260 11.3184630260  
Ti 4.2123086860 4.2123086860 9.2123086860  
Ti 6.3184630260 4.2123086860 11.3184630260  
Ti 4.2123086860 6.3184630260 11.3184630260  
Ti 6.3184630260 6.3184630260 9.2123086860  

